(set-logic HORN)
(declare-fun assign_38_5_234_abs012 (Int Int Int Int Int Int Int Int Int) Bool)
(declare-fun assign_37_5_225_abs012 (Int Int Int Int Int Int Int Int Int) Bool)
(declare-fun assert_32_2_191_abs012 (Int Int Int Int Int Int Int Int Int) Bool)
(declare-fun assert_35_2_213_abs012 (Int Int Int Int Int Int Int Int Int) Bool)
(declare-fun if_31_5_216_abs012 (Int Int Int Int Int Int Int Int Int) Bool)
(declare-fun while_30_1_237_abs012 (Int Int Int Int Int Int Int Int Int) Bool)
(declare-fun assign_29_1_157_abs012 (Int Int Int Int Int Int Int Int Int) Bool)
(declare-fun assign_28_1_151_abs012 (Int Int Int Int Int Int Int Int Int) Bool)
(declare-fun assign_26_1_145_abs012 (Int Int Int Int Int Int Int Int Int) Bool)
(declare-fun assign_23_5_127_abs012 (Int Int Int Int Int Int Int Int Int) Bool)
(declare-fun arrayassign_22_5_118_abs012 (Int Int Int Int Int Int Int Int Int) Bool)
(declare-fun while_21_1_130_abs012 (Int Int Int Int Int Int Int Int Int) Bool)
(declare-fun assign_20_1_96_abs012 (Int Int Int Int Int Int Int Int Int) Bool)
(declare-fun assign_17_5_87_abs012 (Int Int Int Int Int Int Int Int Int) Bool)
(declare-fun arrayassign_16_5_78_abs012 (Int Int Int Int Int Int Int Int Int) Bool)
(declare-fun while_15_1_90_abs012 (Int Int Int Int Int Int Int Int Int) Bool)
(declare-fun assign_14_1_56_abs012 (Int Int Int Int Int Int Int Int Int) Bool)
(declare-fun assign_12_1_50_abs012 (Int Int Int Int Int Int Int Int Int) Bool)
(declare-fun end_abs012 (Int Int Int Int Int Int Int Int Int) Bool)
(declare-fun start_abs012 (Int Int Int Int Int Int Int Int Int) Bool)
(assert (forall ((res (Array Int Int)) (b (Array Int Int)) (a (Array Int Int)) (modul Int) (size Int) (i Int) (vabs_f_f Int) (vabs_s_f_f Int) (vabs_s_s_f_f Int)) (start_abs012 vabs_f_f (select res vabs_f_f) vabs_s_f_f (select b vabs_s_f_f) vabs_s_s_f_f (select a vabs_s_s_f_f) modul size i)))
(assert (forall ((i Int) (size Int) (modul Int) (a (Array Int Int)) (b (Array Int Int)) (res (Array Int Int)) (vabs_0_f_f Int) (vabs_0_s_f_f Int) (vabs_0_s_s_f_f Int)) (=> (start_abs012 vabs_0_f_f (select res vabs_0_f_f) vabs_0_s_f_f (select b vabs_0_s_f_f) vabs_0_s_s_f_f (select a vabs_0_s_s_f_f) modul size i) (assign_12_1_50_abs012 vabs_0_f_f (select res vabs_0_f_f) vabs_0_s_f_f (select b vabs_0_s_f_f) vabs_0_s_s_f_f (select a vabs_0_s_s_f_f) modul size i))))
(assert (forall ((rnd Int) (i Int) (size Int) (modul Int) (a (Array Int Int)) (b (Array Int Int)) (res (Array Int Int)) (vabs_0_f_f Int) (vabs_0_s_f_f Int) (vabs_0_s_s_f_f Int)) (=> (assign_12_1_50_abs012 vabs_0_f_f (select res vabs_0_f_f) vabs_0_s_f_f (select b vabs_0_s_f_f) vabs_0_s_s_f_f (select a vabs_0_s_s_f_f) modul size i) (assign_14_1_56_abs012 vabs_0_f_f (select res vabs_0_f_f) vabs_0_s_f_f (select b vabs_0_s_f_f) vabs_0_s_s_f_f (select a vabs_0_s_s_f_f) modul rnd i))))
(assert (forall ((i Int) (size Int) (modul Int) (a (Array Int Int)) (b (Array Int Int)) (res (Array Int Int)) (vabs_0_f_f Int) (vabs_0_s_f_f Int) (vabs_0_s_s_f_f Int)) (=> (assign_14_1_56_abs012 vabs_0_f_f (select res vabs_0_f_f) vabs_0_s_f_f (select b vabs_0_s_f_f) vabs_0_s_s_f_f (select a vabs_0_s_s_f_f) modul size i) (while_15_1_90_abs012 vabs_0_f_f (select res vabs_0_f_f) vabs_0_s_f_f (select b vabs_0_s_f_f) vabs_0_s_s_f_f (select a vabs_0_s_s_f_f) modul size 0))))
(assert (forall ((res (Array Int Int)) (b (Array Int Int)) (a (Array Int Int)) (modul Int) (size Int) (i Int) (vabs_0_f_f Int) (vabs_0_s_f_f Int) (vabs_0_s_s_f_f Int)) (=> (and (while_15_1_90_abs012 vabs_0_f_f (select res vabs_0_f_f) vabs_0_s_f_f (select b vabs_0_s_f_f) vabs_0_s_s_f_f (select a vabs_0_s_s_f_f) modul size i) (< i size)) (arrayassign_16_5_78_abs012 vabs_0_f_f (select res vabs_0_f_f) vabs_0_s_f_f (select b vabs_0_s_f_f) vabs_0_s_s_f_f (select a vabs_0_s_s_f_f) modul size i))))
(assert (forall ((res (Array Int Int)) (b (Array Int Int)) (a (Array Int Int)) (modul Int) (size Int) (i Int) (vabs_0_f_f Int) (vabs_0_s_f_f Int) (vabs_0_s_s_f_f Int)) (=> (and (while_15_1_90_abs012 vabs_0_f_f (select res vabs_0_f_f) vabs_0_s_f_f (select b vabs_0_s_f_f) vabs_0_s_s_f_f (select a vabs_0_s_s_f_f) modul size i) (not (< i size))) (assign_20_1_96_abs012 vabs_0_f_f (select res vabs_0_f_f) vabs_0_s_f_f (select b vabs_0_s_f_f) vabs_0_s_s_f_f (select a vabs_0_s_s_f_f) modul size i))))
(assert (forall ((i Int) (size Int) (modul Int) (a (Array Int Int)) (b (Array Int Int)) (res (Array Int Int)) (vabs_0_f_f Int) (vabs_0_s_f_f Int) (vabs_0_s_s_f_f Int)) (=> (and (arrayassign_16_5_78_abs012 vabs_0_f_f (select res vabs_0_f_f) vabs_0_s_f_f (select b vabs_0_s_f_f) vabs_0_s_s_f_f (select a vabs_0_s_s_f_f) modul size i) (arrayassign_16_5_78_abs012 vabs_0_f_f (select res vabs_0_f_f) vabs_0_s_f_f (select b vabs_0_s_f_f) i (select a i) modul size i)) (assign_17_5_87_abs012 vabs_0_f_f (select (store res i (select a i)) vabs_0_f_f) vabs_0_s_f_f (select b vabs_0_s_f_f) vabs_0_s_s_f_f (select a vabs_0_s_s_f_f) modul size i))))
(assert (forall ((i Int) (size Int) (modul Int) (a (Array Int Int)) (b (Array Int Int)) (res (Array Int Int)) (vabs_0_f_f Int) (vabs_0_s_f_f Int) (vabs_0_s_s_f_f Int)) (=> (assign_17_5_87_abs012 vabs_0_f_f (select res vabs_0_f_f) vabs_0_s_f_f (select b vabs_0_s_f_f) vabs_0_s_s_f_f (select a vabs_0_s_s_f_f) modul size i) (while_15_1_90_abs012 vabs_0_f_f (select res vabs_0_f_f) vabs_0_s_f_f (select b vabs_0_s_f_f) vabs_0_s_s_f_f (select a vabs_0_s_s_f_f) modul size (+ i 2)))))
(assert (forall ((i Int) (size Int) (modul Int) (a (Array Int Int)) (b (Array Int Int)) (res (Array Int Int)) (vabs_0_f_f Int) (vabs_0_s_f_f Int) (vabs_0_s_s_f_f Int)) (=> (assign_20_1_96_abs012 vabs_0_f_f (select res vabs_0_f_f) vabs_0_s_f_f (select b vabs_0_s_f_f) vabs_0_s_s_f_f (select a vabs_0_s_s_f_f) modul size i) (while_21_1_130_abs012 vabs_0_f_f (select res vabs_0_f_f) vabs_0_s_f_f (select b vabs_0_s_f_f) vabs_0_s_s_f_f (select a vabs_0_s_s_f_f) modul size 1))))
(assert (forall ((res (Array Int Int)) (b (Array Int Int)) (a (Array Int Int)) (modul Int) (size Int) (i Int) (vabs_0_f_f Int) (vabs_0_s_f_f Int) (vabs_0_s_s_f_f Int)) (=> (and (while_21_1_130_abs012 vabs_0_f_f (select res vabs_0_f_f) vabs_0_s_f_f (select b vabs_0_s_f_f) vabs_0_s_s_f_f (select a vabs_0_s_s_f_f) modul size i) (< i size)) (arrayassign_22_5_118_abs012 vabs_0_f_f (select res vabs_0_f_f) vabs_0_s_f_f (select b vabs_0_s_f_f) vabs_0_s_s_f_f (select a vabs_0_s_s_f_f) modul size i))))
(assert (forall ((res (Array Int Int)) (b (Array Int Int)) (a (Array Int Int)) (modul Int) (size Int) (i Int) (vabs_0_f_f Int) (vabs_0_s_f_f Int) (vabs_0_s_s_f_f Int)) (=> (and (while_21_1_130_abs012 vabs_0_f_f (select res vabs_0_f_f) vabs_0_s_f_f (select b vabs_0_s_f_f) vabs_0_s_s_f_f (select a vabs_0_s_s_f_f) modul size i) (not (< i size))) (assign_26_1_145_abs012 vabs_0_f_f (select res vabs_0_f_f) vabs_0_s_f_f (select b vabs_0_s_f_f) vabs_0_s_s_f_f (select a vabs_0_s_s_f_f) modul size i))))
(assert (forall ((i Int) (size Int) (modul Int) (a (Array Int Int)) (b (Array Int Int)) (res (Array Int Int)) (vabs_0_f_f Int) (vabs_0_s_f_f Int) (vabs_0_s_s_f_f Int)) (=> (and (arrayassign_22_5_118_abs012 vabs_0_f_f (select res vabs_0_f_f) vabs_0_s_f_f (select b vabs_0_s_f_f) vabs_0_s_s_f_f (select a vabs_0_s_s_f_f) modul size i) (arrayassign_22_5_118_abs012 vabs_0_f_f (select res vabs_0_f_f) i (select b i) vabs_0_s_s_f_f (select a vabs_0_s_s_f_f) modul size i)) (assign_23_5_127_abs012 vabs_0_f_f (select (store res i (select b i)) vabs_0_f_f) vabs_0_s_f_f (select b vabs_0_s_f_f) vabs_0_s_s_f_f (select a vabs_0_s_s_f_f) modul size i))))
(assert (forall ((i Int) (size Int) (modul Int) (a (Array Int Int)) (b (Array Int Int)) (res (Array Int Int)) (vabs_0_f_f Int) (vabs_0_s_f_f Int) (vabs_0_s_s_f_f Int)) (=> (assign_23_5_127_abs012 vabs_0_f_f (select res vabs_0_f_f) vabs_0_s_f_f (select b vabs_0_s_f_f) vabs_0_s_s_f_f (select a vabs_0_s_s_f_f) modul size i) (while_21_1_130_abs012 vabs_0_f_f (select res vabs_0_f_f) vabs_0_s_f_f (select b vabs_0_s_f_f) vabs_0_s_s_f_f (select a vabs_0_s_s_f_f) modul size (+ i 2)))))
(assert (forall ((rnd Int) (res (Array Int Int)) (b (Array Int Int)) (a (Array Int Int)) (modul Int) (size Int) (i Int) (vabs_0_f_f Int) (vabs_0_s_f_f Int) (vabs_0_s_s_f_f Int)) (=> (and (assign_26_1_145_abs012 vabs_0_f_f (select res vabs_0_f_f) vabs_0_s_f_f (select b vabs_0_s_f_f) vabs_0_s_s_f_f (select a vabs_0_s_s_f_f) modul size i) (>= rnd 0) (< rnd size)) (assign_28_1_151_abs012 vabs_0_f_f (select res vabs_0_f_f) vabs_0_s_f_f (select b vabs_0_s_f_f) vabs_0_s_s_f_f (select a vabs_0_s_s_f_f) modul size i))))
(assert (forall ((i Int) (size Int) (modul Int) (a (Array Int Int)) (b (Array Int Int)) (res (Array Int Int)) (vabs_0_f_f Int) (vabs_0_s_f_f Int) (vabs_0_s_s_f_f Int)) (=> (assign_28_1_151_abs012 vabs_0_f_f (select res vabs_0_f_f) vabs_0_s_f_f (select b vabs_0_s_f_f) vabs_0_s_s_f_f (select a vabs_0_s_s_f_f) modul size i) (assign_29_1_157_abs012 vabs_0_f_f (select res vabs_0_f_f) vabs_0_s_f_f (select b vabs_0_s_f_f) vabs_0_s_s_f_f (select a vabs_0_s_s_f_f) modul size 0))))
(assert (forall ((i Int) (size Int) (modul Int) (a (Array Int Int)) (b (Array Int Int)) (res (Array Int Int)) (vabs_0_f_f Int) (vabs_0_s_f_f Int) (vabs_0_s_s_f_f Int)) (=> (assign_29_1_157_abs012 vabs_0_f_f (select res vabs_0_f_f) vabs_0_s_f_f (select b vabs_0_s_f_f) vabs_0_s_s_f_f (select a vabs_0_s_s_f_f) modul size i) (while_30_1_237_abs012 vabs_0_f_f (select res vabs_0_f_f) vabs_0_s_f_f (select b vabs_0_s_f_f) vabs_0_s_s_f_f (select a vabs_0_s_s_f_f) 1 size i))))
(assert (forall ((res (Array Int Int)) (b (Array Int Int)) (a (Array Int Int)) (modul Int) (size Int) (i Int) (vabs_0_f_f Int) (vabs_0_s_f_f Int) (vabs_0_s_s_f_f Int)) (=> (and (while_30_1_237_abs012 vabs_0_f_f (select res vabs_0_f_f) vabs_0_s_f_f (select b vabs_0_s_f_f) vabs_0_s_s_f_f (select a vabs_0_s_s_f_f) modul size i) (< i size)) (if_31_5_216_abs012 vabs_0_f_f (select res vabs_0_f_f) vabs_0_s_f_f (select b vabs_0_s_f_f) vabs_0_s_s_f_f (select a vabs_0_s_s_f_f) modul size i))))
(assert (forall ((res (Array Int Int)) (b (Array Int Int)) (a (Array Int Int)) (modul Int) (size Int) (i Int) (vabs_0_f_f Int) (vabs_0_s_f_f Int) (vabs_0_s_s_f_f Int)) (=> (and (while_30_1_237_abs012 vabs_0_f_f (select res vabs_0_f_f) vabs_0_s_f_f (select b vabs_0_s_f_f) vabs_0_s_s_f_f (select a vabs_0_s_s_f_f) modul size i) (not (< i size))) (end_abs012 vabs_0_f_f (select res vabs_0_f_f) vabs_0_s_f_f (select b vabs_0_s_f_f) vabs_0_s_s_f_f (select a vabs_0_s_s_f_f) modul size i))))
(assert (forall ((res (Array Int Int)) (b (Array Int Int)) (a (Array Int Int)) (modul Int) (size Int) (i Int) (vabs_0_f_f Int) (vabs_0_s_f_f Int) (vabs_0_s_s_f_f Int)) (=> (and (if_31_5_216_abs012 vabs_0_f_f (select res vabs_0_f_f) vabs_0_s_f_f (select b vabs_0_s_f_f) vabs_0_s_s_f_f (select a vabs_0_s_s_f_f) modul size i) (= modul 0)) (assert_32_2_191_abs012 vabs_0_f_f (select res vabs_0_f_f) vabs_0_s_f_f (select b vabs_0_s_f_f) vabs_0_s_s_f_f (select a vabs_0_s_s_f_f) modul size i))))
(assert (forall ((res (Array Int Int)) (b (Array Int Int)) (a (Array Int Int)) (modul Int) (size Int) (i Int) (vabs_0_f_f Int) (vabs_0_s_f_f Int) (vabs_0_s_s_f_f Int)) (=> (and (if_31_5_216_abs012 vabs_0_f_f (select res vabs_0_f_f) vabs_0_s_f_f (select b vabs_0_s_f_f) vabs_0_s_s_f_f (select a vabs_0_s_s_f_f) modul size i) (not (= modul 0))) (assert_35_2_213_abs012 vabs_0_f_f (select res vabs_0_f_f) vabs_0_s_f_f (select b vabs_0_s_f_f) vabs_0_s_s_f_f (select a vabs_0_s_s_f_f) modul size i))))
(assert (forall ((i Int) (size Int) (modul Int) (a (Array Int Int)) (b (Array Int Int)) (res (Array Int Int))) (=> (assert_32_2_191_abs012 i (select res i) 0 (select b 0) i (select a i) modul size i) (= (select res i) (select a i)))))
(assert (forall ((i Int) (size Int) (modul Int) (a (Array Int Int)) (b (Array Int Int)) (res (Array Int Int)) (vabs_0_f_f Int) (vabs_0_s_f_f Int) (vabs_0_s_s_f_f Int)) (=> (assert_32_2_191_abs012 vabs_0_f_f (select res vabs_0_f_f) vabs_0_s_f_f (select b vabs_0_s_f_f) vabs_0_s_s_f_f (select a vabs_0_s_s_f_f) modul size i) (assign_37_5_225_abs012 vabs_0_f_f (select res vabs_0_f_f) vabs_0_s_f_f (select b vabs_0_s_f_f) vabs_0_s_s_f_f (select a vabs_0_s_s_f_f) modul size i))))
(assert (forall ((i Int) (size Int) (modul Int) (a (Array Int Int)) (b (Array Int Int)) (res (Array Int Int))) (=> (assert_35_2_213_abs012 i (select res i) i (select b i) 0 (select a 0) modul size i) (= (select res i) (select b i)))))
(assert (forall ((i Int) (size Int) (modul Int) (a (Array Int Int)) (b (Array Int Int)) (res (Array Int Int)) (vabs_0_f_f Int) (vabs_0_s_f_f Int) (vabs_0_s_s_f_f Int)) (=> (assert_35_2_213_abs012 vabs_0_f_f (select res vabs_0_f_f) vabs_0_s_f_f (select b vabs_0_s_f_f) vabs_0_s_s_f_f (select a vabs_0_s_s_f_f) modul size i) (assign_37_5_225_abs012 vabs_0_f_f (select res vabs_0_f_f) vabs_0_s_f_f (select b vabs_0_s_f_f) vabs_0_s_s_f_f (select a vabs_0_s_s_f_f) modul size i))))
(assert (forall ((i Int) (size Int) (modul Int) (a (Array Int Int)) (b (Array Int Int)) (res (Array Int Int)) (vabs_0_f_f Int) (vabs_0_s_f_f Int) (vabs_0_s_s_f_f Int)) (=> (assign_37_5_225_abs012 vabs_0_f_f (select res vabs_0_f_f) vabs_0_s_f_f (select b vabs_0_s_f_f) vabs_0_s_s_f_f (select a vabs_0_s_s_f_f) modul size i) (assign_38_5_234_abs012 vabs_0_f_f (select res vabs_0_f_f) vabs_0_s_f_f (select b vabs_0_s_f_f) vabs_0_s_s_f_f (select a vabs_0_s_s_f_f) (- 1 modul) size i))))
(assert (forall ((i Int) (size Int) (modul Int) (a (Array Int Int)) (b (Array Int Int)) (res (Array Int Int)) (vabs_0_f_f Int) (vabs_0_s_f_f Int) (vabs_0_s_s_f_f Int)) (=> (assign_38_5_234_abs012 vabs_0_f_f (select res vabs_0_f_f) vabs_0_s_f_f (select b vabs_0_s_f_f) vabs_0_s_s_f_f (select a vabs_0_s_s_f_f) modul size i) (while_30_1_237_abs012 vabs_0_f_f (select res vabs_0_f_f) vabs_0_s_f_f (select b vabs_0_s_f_f) vabs_0_s_s_f_f (select a vabs_0_s_s_f_f) modul size (+ i 1)))))
(check-sat)